Minimize
  0.2 y_0 + 0.0909090909090909 y_1 + 0.1111111111111111 y_2
   + 0.0909090909090909 y_3 + 0.0833333333333333 y_4
   + 0.1428571428571428 y_5 + 0.0833333333333333 y_6
   + 0.1666666666666667 y_7 + 0.0909090909090909 y_8
   + 0.3333333333333333 y_9 + 0.25 y_10 + 0.1666666666666667 y_11
   + 0.1666666666666667 y_12 + 0.25 y_13 + 0.1111111111111111 y_14
   + 0.5 y_15 + 0.0769230769230769 y_16 + 0.1 y_17
   + 0.1428571428571428 y_18 + 0.1666666666666667 y_19
   + 0.0909090909090909 y_20 + 0.1 y_21 + 0.0714285714285714 y_22
   + 0.125 y_23 + 0.0909090909090909 y_24 + 0.1666666666666667 y_25
   + 0.1 y_26 + 0.1428571428571428 y_27 + 0.1111111111111111 y_28
   + 0.1111111111111111 y_29 + 0.0833333333333333 y_30
   + 0.1428571428571428 y_31 + 0.0714285714285714 y_32 + 0.1 y_33
   + 0.1111111111111111 y_34 + 0.0909090909090909 y_35
   + 0.1666666666666667 y_36 + 0.0833333333333333 y_37
   + 0.1111111111111111 y_38 + 0.0769230769230769 y_39 + 0.1 y_40
   + 0.1 y_41 + 0.125 y_42 + 0.1666666666666667 y_43 + 0.25 y_44 + 0.1 y_45
   + 0.2 y_46 + 0.2 y_47 + 0.1111111111111111 y_48
   + 0.0833333333333333 y_49 + 0.1428571428571428 y_50 + 0.125 y_51
   + 0.0833333333333333 y_52 + 0.0714285714285714 y_53
   + 0.0909090909090909 y_54 + 0.0666666666666667 y_55 + 0.5 y_56
   + 0.0909090909090909 y_57 + 0.1428571428571428 y_58
   + 0.0909090909090909 y_59 + 0.0833333333333333 y_60
   + 0.1111111111111111 y_61 + 0.25 y_62 + 0.2 y_63
   + 0.0909090909090909 y_64 + 0.0909090909090909 y_65 + y_66
   + 0.1666666666666667 y_67 + 0.1111111111111111 y_68 + 0.125 y_69
   + 0.3333333333333333 y_70 + 0.1 y_71 + 0.1 y_72 + 0.125 y_73
   + 0.0714285714285714 y_74 + 0.1666666666666667 y_75
   + 0.1428571428571428 y_76 + 0.1 y_77 + 0.0769230769230769 y_78
   + 0.1428571428571428 y_79 + 0.0833333333333333 y_80 + 0.1 y_81
   + 0.0909090909090909 y_82 + 0.0833333333333333 y_83 + 0.2 y_84
   + 0.25 y_85 + 0.1666666666666667 y_86 + 0.0909090909090909 y_87
   + 0.0909090909090909 y_88 + 0.0833333333333333 y_89 + 0.2 y_90
   + 0.1 y_91 + 0.1666666666666667 y_92 + 0.1111111111111111 y_93
   + 0.0833333333333333 y_94 + 0.25 y_95 + 0.0833333333333333 y_96
   + 0.125 y_97 + 0.1 y_98 + 0.1428571428571428 y_99
   - 14.50270285270285 Constant
Subject To
 c_0: y_57 = 1
 c_1_0: y_0 + y_5 + y_10 + y_15 + y_36 + y_42 + y_44 + y_47 + y_58 + y_62
   + y_63 + y_66 + y_70 + y_86 + y_95 >= 1
 c_1_1: y_1 + y_6 + y_14 + y_24 + y_37 + y_38 + y_48 + y_60 + y_71 + y_78
   >= 1
 c_1_2: y_2 + y_7 + y_12 + y_26 + y_34 + y_72 + y_76 + y_79 + y_93 + y_97
   >= 1
 c_1_3: y_3 + y_16 + y_22 + y_51 + y_68 + y_81 + y_82 + y_89 >= 1
 c_1_4: y_4 + y_17 + y_28 + y_33 + y_39 + y_42 + y_54 + y_57 + y_80 + y_96
   >= 1
 c_1_5: y_0 + y_5 + y_10 + y_14 + y_19 + y_23 + y_29 + y_36 + y_38 + y_40
   + y_47 + y_58 + y_63 + y_67 + y_69 + y_71 + y_86 >= 1
 c_1_6: y_1 + y_6 + y_24 + y_28 + y_37 + y_48 + y_54 + y_57 + y_60 >= 1
 c_1_7: y_2 + y_7 + y_10 + y_12 + y_15 + y_19 + y_34 + y_47 + y_50 + y_56
   + y_63 + y_67 + y_69 + y_76 + y_79 + y_93 + y_97 >= 1
 c_1_8: y_8 + y_14 + y_20 + y_23 + y_29 + y_38 + y_40 + y_69 + y_71 + y_74
   + y_83 + y_87 >= 1
 c_1_9: y_9 + y_11 + y_13 + y_15 + y_25 + y_43 + y_46 + y_56 + y_62 + y_66
   + y_70 + y_75 + y_84 + y_85 + y_90 + y_92 + y_95 >= 1
 c_1_10: y_0 + y_5 + y_7 + y_10 + y_12 + y_15 + y_19 + y_23 + y_44 + y_47
   + y_56 + y_63 + y_66 + y_67 + y_69 + y_70 + y_86 >= 1
 c_1_11: y_9 + y_11 + y_13 + y_25 + y_31 + y_61 + y_73 + y_75 + y_84 + y_85
   + y_90 + y_92 + y_99 >= 1
 c_1_12: y_2 + y_7 + y_10 + y_12 + y_15 + y_19 + y_23 + y_26 + y_29 + y_34
   + y_47 + y_63 + y_67 + y_69 + y_76 + y_79 + y_93 + y_97 + y_98 >= 1
 c_1_13: y_9 + y_11 + y_13 + y_15 + y_31 + y_44 + y_56 + y_62 + y_66 + y_70
   + y_75 + y_85 + y_90 + y_92 + y_95 >= 1
 c_1_14: y_1 + y_5 + y_8 + y_14 + y_24 + y_36 + y_37 + y_38 + y_40 + y_48
   + y_58 + y_71 + y_78 + y_86 + y_87 >= 1
 c_1_15: y_0 + y_7 + y_9 + y_10 + y_12 + y_13 + y_15 + y_19 + y_44 + y_47
   + y_56 + y_62 + y_63 + y_66 + y_67 + y_70 + y_95 >= 1
 c_1_16: y_3 + y_16 + y_22 + y_82 + y_89 >= 1
 c_1_17: y_4 + y_17 + y_28 + y_33 + y_39 + y_42 + y_54 + y_57 + y_80 + y_96
   >= 1
 c_1_18: y_18 + y_21 + y_25 + y_27 + y_43 + y_45 + y_46 + y_51 + y_59
   + y_64 + y_68 + y_81 + y_82 + y_84 + y_90 >= 1
 c_1_19: y_5 + y_7 + y_10 + y_12 + y_15 + y_19 + y_23 + y_29 + y_47 + y_63
   + y_67 + y_69 + y_86 >= 1
 c_1_20: y_8 + y_20 + y_23 + y_29 + y_38 + y_40 + y_69 + y_74 + y_83 + y_87
   >= 1
 c_1_21: y_18 + y_21 + y_45 + y_51 + y_59 + y_64 + y_68 + y_81 + y_82 >= 1
 c_1_22: y_3 + y_16 + y_22 + y_89 >= 1
 c_1_23: y_5 + y_8 + y_10 + y_12 + y_19 + y_20 + y_23 + y_29 + y_38 + y_40
   + y_47 + y_63 + y_67 + y_69 + y_87 + y_98 >= 1
 c_1_24: y_1 + y_6 + y_14 + y_24 + y_28 + y_37 + y_48 + y_54 + y_57 + y_60
   + y_71 + y_78 >= 1
 c_1_25: y_9 + y_11 + y_18 + y_25 + y_31 + y_51 + y_61 + y_73 + y_75 + y_84
   + y_85 + y_90 + y_92 + y_99 >= 1
 c_1_26: y_2 + y_12 + y_26 + y_29 + y_34 + y_72 + y_93 + y_97 + y_98 >= 1
 c_1_27: y_18 + y_27 + y_43 + y_45 + y_46 + y_50 + y_84 >= 1
 c_1_28: y_4 + y_6 + y_17 + y_24 + y_28 + y_33 + y_36 + y_37 + y_42 + y_48
   + y_54 + y_57 + y_58 + y_60 + y_80 >= 1
 c_1_29: y_5 + y_8 + y_12 + y_19 + y_20 + y_23 + y_26 + y_29 + y_38 + y_40
   + y_47 + y_63 + y_67 + y_69 + y_87 + y_98 >= 1
 c_1_30: y_30 + y_35 + y_41 + y_52 + y_65 + y_91 >= 1
 c_1_31: y_11 + y_13 + y_25 + y_31 + y_41 + y_61 + y_73 + y_75 + y_85
   + y_88 + y_92 + y_99 >= 1
 c_1_32: y_32 + y_39 + y_49 + y_52 + y_53 + y_55 + y_96 >= 1
 c_1_33: y_4 + y_17 + y_28 + y_33 + y_42 + y_54 + y_57 + y_80 + y_96 >= 1
 c_1_34: y_2 + y_7 + y_12 + y_26 + y_34 + y_72 + y_76 + y_79 + y_93 + y_97
   + y_98 >= 1
 c_1_35: y_30 + y_35 + y_41 + y_61 + y_65 + y_73 + y_88 + y_91 + y_99 >= 1
 c_1_36: y_0 + y_5 + y_14 + y_28 + y_36 + y_42 + y_44 + y_48 + y_58 + y_63
   + y_70 + y_86 + y_95 >= 1
 c_1_37: y_1 + y_6 + y_14 + y_24 + y_28 + y_37 + y_48 + y_54 + y_57 + y_60
   + y_71 + y_78 >= 1
 c_1_38: y_1 + y_5 + y_8 + y_14 + y_20 + y_23 + y_29 + y_38 + y_40 + y_67
   + y_69 + y_71 + y_74 + y_83 + y_86 + y_87 >= 1
 c_1_39: y_4 + y_17 + y_32 + y_39 + y_49 + y_52 + y_53 + y_55 + y_96 >= 1
 c_1_40: y_5 + y_8 + y_14 + y_20 + y_23 + y_29 + y_38 + y_40 + y_69 + y_71
   + y_74 + y_83 + y_87 >= 1
 c_1_41: y_30 + y_31 + y_35 + y_41 + y_52 + y_61 + y_65 + y_73 + y_88
   + y_91 + y_99 >= 1
 c_1_42: y_0 + y_4 + y_17 + y_28 + y_33 + y_36 + y_42 + y_44 + y_48 + y_57
   + y_58 + y_80 + y_95 >= 1
 c_1_43: y_9 + y_18 + y_27 + y_43 + y_46 + y_50 + y_84 + y_90 >= 1
 c_1_44: y_0 + y_10 + y_13 + y_15 + y_36 + y_42 + y_44 + y_47 + y_56 + y_58
   + y_62 + y_63 + y_66 + y_70 + y_86 + y_95 >= 1
 c_1_45: y_18 + y_21 + y_27 + y_45 + y_51 + y_59 + y_64 + y_68 + y_81
   + y_82 >= 1
 c_1_46: y_9 + y_18 + y_27 + y_43 + y_46 + y_50 + y_56 + y_66 + y_84 + y_90
   >= 1
 c_1_47: y_0 + y_5 + y_7 + y_10 + y_12 + y_15 + y_19 + y_23 + y_29 + y_44
   + y_47 + y_56 + y_63 + y_66 + y_67 + y_69 + y_70 + y_86 >= 1
 c_1_48: y_1 + y_6 + y_14 + y_24 + y_28 + y_36 + y_37 + y_42 + y_48 + y_54
   + y_57 + y_58 + y_60 + y_71 + y_86 >= 1
 c_1_49: y_32 + y_39 + y_49 + y_52 + y_53 + y_55 + y_96 >= 1
 c_1_50: y_7 + y_27 + y_43 + y_46 + y_50 + y_76 + y_77 + y_79 + y_97 >= 1
 c_1_51: y_3 + y_18 + y_21 + y_25 + y_45 + y_51 + y_59 + y_64 + y_68 + y_81
   + y_82 + y_84 + y_90 >= 1
 c_1_52: y_30 + y_32 + y_39 + y_41 + y_49 + y_52 + y_53 + y_55 + y_91
   + y_96 >= 1
 c_1_53: y_32 + y_39 + y_49 + y_52 + y_53 + y_55 + y_96 >= 1
 c_1_54: y_4 + y_6 + y_17 + y_24 + y_28 + y_33 + y_37 + y_48 + y_54 + y_57
   + y_60 + y_80 >= 1
 c_1_55: y_32 + y_39 + y_49 + y_52 + y_53 + y_55 + y_96 >= 1
 c_1_56: y_7 + y_9 + y_10 + y_13 + y_15 + y_44 + y_46 + y_47 + y_56 + y_62
   + y_63 + y_66 + y_70 + y_85 + y_95 >= 1
 c_1_57: y_4 + y_6 + y_17 + y_24 + y_28 + y_33 + y_37 + y_42 + y_48 + y_54
   + y_57 + y_60 + y_80 >= 1
 c_1_58: y_0 + y_5 + y_14 + y_28 + y_36 + y_42 + y_44 + y_48 + y_58 + y_63
   + y_70 + y_71 + y_86 + y_95 >= 1
 c_1_59: y_18 + y_21 + y_45 + y_51 + y_59 + y_64 + y_68 + y_81 + y_82 >= 1
 c_1_60: y_1 + y_6 + y_24 + y_28 + y_37 + y_48 + y_54 + y_57 + y_60 + y_71
   + y_78 >= 1
 c_1_61: y_11 + y_25 + y_31 + y_35 + y_41 + y_61 + y_65 + y_73 + y_75
   + y_88 + y_91 + y_92 + y_99 >= 1
 c_1_62: y_0 + y_9 + y_13 + y_15 + y_44 + y_56 + y_62 + y_66 + y_70 + y_85
   + y_95 >= 1
 c_1_63: y_0 + y_5 + y_7 + y_10 + y_12 + y_15 + y_19 + y_23 + y_29 + y_36
   + y_44 + y_47 + y_56 + y_58 + y_63 + y_66 + y_67 + y_69 + y_70 + y_86
   >= 1
 c_1_64: y_18 + y_21 + y_45 + y_51 + y_59 + y_64 + y_68 + y_81 + y_82 >= 1
 c_1_65: y_30 + y_35 + y_41 + y_61 + y_65 + y_73 + y_88 + y_91 + y_99 >= 1
 c_1_66: y_0 + y_9 + y_10 + y_13 + y_15 + y_44 + y_46 + y_47 + y_56 + y_62
   + y_63 + y_66 + y_70 + y_85 + y_90 + y_95 >= 1
 c_1_67: y_5 + y_7 + y_10 + y_12 + y_15 + y_19 + y_23 + y_29 + y_38 + y_47
   + y_63 + y_67 + y_69 + y_86 >= 1
 c_1_68: y_3 + y_18 + y_21 + y_45 + y_51 + y_59 + y_64 + y_68 + y_81 + y_82
   + y_84 >= 1
 c_1_69: y_5 + y_7 + y_8 + y_10 + y_12 + y_19 + y_20 + y_23 + y_29 + y_38
   + y_40 + y_47 + y_63 + y_67 + y_69 + y_98 >= 1
 c_1_70: y_0 + y_9 + y_10 + y_13 + y_15 + y_36 + y_44 + y_47 + y_56 + y_58
   + y_62 + y_63 + y_66 + y_70 + y_86 + y_95 >= 1
 c_1_71: y_1 + y_5 + y_8 + y_14 + y_24 + y_37 + y_38 + y_40 + y_48 + y_58
   + y_60 + y_71 + y_78 + y_83 + y_86 + y_87 >= 1
 c_1_72: y_2 + y_26 + y_34 + y_72 + y_76 + y_79 + y_93 + y_97 >= 1
 c_1_73: y_11 + y_25 + y_31 + y_35 + y_41 + y_61 + y_65 + y_73 + y_75
   + y_85 + y_88 + y_92 + y_99 >= 1
 c_1_74: y_8 + y_20 + y_38 + y_40 + y_74 + y_78 + y_83 + y_87 >= 1
 c_1_75: y_9 + y_11 + y_13 + y_25 + y_31 + y_61 + y_73 + y_75 + y_84 + y_85
   + y_90 + y_92 + y_99 >= 1
 c_1_76: y_2 + y_7 + y_12 + y_34 + y_50 + y_72 + y_76 + y_79 + y_93 + y_97
   >= 1
 c_1_77: y_50 + y_77 + y_94 >= 1
 c_1_78: y_1 + y_14 + y_24 + y_37 + y_60 + y_71 + y_74 + y_78 >= 1
 c_1_79: y_2 + y_7 + y_12 + y_34 + y_50 + y_72 + y_76 + y_79 + y_93 + y_97
   >= 1
 c_1_80: y_4 + y_17 + y_28 + y_33 + y_42 + y_54 + y_57 + y_80 + y_96 >= 1
 c_1_81: y_3 + y_18 + y_21 + y_45 + y_51 + y_59 + y_64 + y_68 + y_81 + y_82
   >= 1
 c_1_82: y_3 + y_16 + y_18 + y_21 + y_45 + y_51 + y_59 + y_64 + y_68 + y_81
   + y_82 + y_89 >= 1
 c_1_83: y_8 + y_20 + y_38 + y_40 + y_71 + y_74 + y_83 + y_87 >= 1
 c_1_84: y_9 + y_11 + y_18 + y_25 + y_27 + y_43 + y_46 + y_51 + y_68 + y_75
   + y_84 + y_85 + y_90 + y_92 >= 1
 c_1_85: y_9 + y_11 + y_13 + y_25 + y_31 + y_56 + y_62 + y_66 + y_73 + y_75
   + y_84 + y_85 + y_90 + y_92 + y_95 + y_99 >= 1
 c_1_86: y_0 + y_5 + y_10 + y_14 + y_19 + y_36 + y_38 + y_44 + y_47 + y_48
   + y_58 + y_63 + y_67 + y_70 + y_71 + y_86 + y_95 >= 1
 c_1_87: y_8 + y_14 + y_20 + y_23 + y_29 + y_38 + y_40 + y_71 + y_74 + y_83
   + y_87 >= 1
 c_1_88: y_31 + y_35 + y_41 + y_61 + y_65 + y_73 + y_88 + y_99 >= 1
 c_1_89: y_3 + y_16 + y_22 + y_82 + y_89 >= 1
 c_1_90: y_9 + y_11 + y_13 + y_18 + y_25 + y_43 + y_46 + y_51 + y_66 + y_75
   + y_84 + y_85 + y_90 + y_92 >= 1
 c_1_91: y_30 + y_35 + y_41 + y_52 + y_61 + y_65 + y_91 >= 1
 c_1_92: y_9 + y_11 + y_13 + y_25 + y_31 + y_61 + y_73 + y_75 + y_84 + y_85
   + y_90 + y_92 + y_99 >= 1
 c_1_93: y_2 + y_7 + y_12 + y_26 + y_34 + y_72 + y_76 + y_79 + y_93 + y_97
   >= 1
 c_1_94: y_77 + y_94 >= 1
 c_1_95: y_0 + y_9 + y_13 + y_15 + y_36 + y_42 + y_44 + y_56 + y_58 + y_62
   + y_66 + y_70 + y_85 + y_86 + y_95 >= 1
 c_1_96: y_4 + y_17 + y_32 + y_33 + y_39 + y_49 + y_52 + y_53 + y_55 + y_80
   + y_96 >= 1
 c_1_97: y_2 + y_7 + y_12 + y_26 + y_34 + y_50 + y_72 + y_76 + y_79 + y_93
   + y_97 >= 1
 c_1_98: y_12 + y_23 + y_26 + y_29 + y_34 + y_69 + y_98 >= 1
 c_1_99: y_11 + y_25 + y_31 + y_35 + y_41 + y_61 + y_65 + y_73 + y_75
   + y_85 + y_88 + y_92 + y_99 >= 1
Bounds
 Constant = 1
Binaries
 y_0 y_1 y_2 y_3 y_4 y_5 y_6 y_7 y_8 y_9 y_10 y_11 y_12 y_13 y_14 y_15 y_16
 y_17 y_18 y_19 y_20 y_21 y_22 y_23 y_24 y_25 y_26 y_27 y_28 y_29 y_30 y_31
 y_32 y_33 y_34 y_35 y_36 y_37 y_38 y_39 y_40 y_41 y_42 y_43 y_44 y_45 y_46
 y_47 y_48 y_49 y_50 y_51 y_52 y_53 y_54 y_55 y_56 y_57 y_58 y_59 y_60 y_61
 y_62 y_63 y_64 y_65 y_66 y_67 y_68 y_69 y_70 y_71 y_72 y_73 y_74 y_75 y_76
 y_77 y_78 y_79 y_80 y_81 y_82 y_83 y_84 y_85 y_86 y_87 y_88 y_89 y_90 y_91
 y_92 y_93 y_94 y_95 y_96 y_97 y_98 y_99
End
